
Gurobi 5.6.0 (linux64) logging started Mon Feb 24 19:51:29 2014


Gurobi 5.6.0 (linux64) logging started Mon Feb 24 19:52:31 2014


Gurobi 5.6.0 (linux64) logging started Mon Feb 24 19:53:10 2014


Gurobi 5.6.0 (linux64) logging started Mon Feb 24 19:53:47 2014


Gurobi 5.6.0 (linux64) logging started Mon Feb 24 19:53:51 2014


Gurobi 5.6.0 (linux64) logging started Mon Feb 24 19:54:03 2014


Gurobi 5.6.0 (linux64) logging started Mon Feb 24 19:54:19 2014


Gurobi 5.6.0 (linux64) logging started Mon Feb 24 19:55:24 2014


Gurobi 5.6.0 (linux64) logging started Mon Feb 24 19:55:37 2014


Gurobi 5.6.0 (linux64) logging started Mon Feb 24 20:04:33 2014


Gurobi 5.6.0 (linux64) logging started Mon Feb 24 20:04:51 2014


Gurobi 5.6.0 (linux64) logging started Mon Feb 24 20:04:56 2014


Gurobi 5.6.0 (linux64) logging started Mon Feb 24 20:06:12 2014


Gurobi 5.6.0 (linux64) logging started Mon Feb 24 20:06:17 2014


Gurobi 5.6.0 (linux64) logging started Mon Feb 24 20:09:08 2014


Gurobi 5.6.0 (linux64) logging started Mon Feb 24 20:09:16 2014


Gurobi 5.6.0 (linux64) logging started Mon Feb 24 20:09:24 2014


Gurobi 5.6.0 (linux64) logging started Mon Feb 24 20:09:48 2014


Gurobi 5.6.0 (linux64) logging started Mon Feb 24 20:09:51 2014


Gurobi 5.6.0 (linux64) logging started Mon Feb 24 20:09:59 2014


Gurobi 5.6.0 (linux64) logging started Mon Feb 24 20:10:03 2014


Gurobi 5.6.0 (linux64) logging started Mon Feb 24 20:39:11 2014


Gurobi 5.6.0 (linux64) logging started Fri Feb 28 20:06:42 2014


Gurobi 5.6.0 (linux64) logging started Fri Feb 28 20:07:15 2014


Gurobi 5.6.0 (linux64) logging started Fri Feb 28 20:07:37 2014

